Test: fpga10_13_uns_rcr.cnf
Options: -no-inverting-opt -activity-nl-freq=1
WARNING: for repeatability, setting FPU to use double precision
============================[ Problem Statistics ]=============================
|                                                                             |
|  Number of symmetries:           42                                         |
|  Number of invertingSyms:         0                                         |
|  Number of variables:           260                                         |
|  Number of clauses:            1586                                         |
|  Parse time:                   0.00 s                                       |
|                                                                             |
============================[ Search Statistics ]==============================
| Conflicts |          ORIGINAL         |          LEARNT          | Progress |
|           |    Vars  Clauses Literals |    Limit  Clauses Lit/Cl |          |
===============================================================================
|       100 |     260     1586     3380 |      581      119     49 |  0.001 % |
|       250 |     260     1586     3380 |      639      342     45 |  0.019 % |
|       475 |     260     1586     3380 |      703      434     37 |  0.001 % |
|       812 |     260     1586     3380 |      774      632     42 |  0.001 % |
|      1318 |     260     1586     3380 |      851      564     38 |  0.001 % |
|      2077 |     260     1586     3380 |      936      602     32 |  0.001 % |
|      3216 |     260     1586     3380 |     1030      528     29 |  0.001 % |
===============================================================================
restarts              : 16
conflicts             : 3287           (41085 /sec)
symconflicts          : 440            (5500 /sec)
decisions             : 5941           (0.00 % random) (74258 /sec)
propagations          : 70003          (874983 /sec)
sympropagations       : 2803           (35035 /sec)
conflict literals     : 144392         (5.98 % deleted)
literals     : 144392         (5.98 % deleted)

HEURISTIC USAGES
random                : 0           
activity w/ lookahead : 0           
activity no lookahead : 5941        
original sp           : 0           
sym count             : 0           

Memory used           : 6.00 MB
CPU time              : 0.080005 s

UNSATISFIABLE
